c
p cnf 20 43
2 7 0
13 -15 0
20 -1 0
-4 11 0
13 16 0
13 -9 0
-10 -20 0
15 -14 0
-17 18 0
-9 15 0
-7 -16 0
-9 17 0
-18 10 0
2 1 0
2 -5 0
14 -1 0
15 11 0
8 15 0
-6 4 0
15 -17 0
-7 -12 0
13 -2 0
9 -2 0
-20 8 0
-5 -4 0
12 6 0
1 10 0
-6 15 0
-3 -10 0
-6 19 0
10 -20 0
-9 -14 0
-19 -8 0
19 8 0
-17 -13 0
10 -17 0
19 6 0
-9 -8 0
2 -16 0
-13 -8 0
4 -14 0
-19 -20 0
-14 3 0
